c This graph is produced by Sof A. Lee
c Experiment on graph colouring using phase coupled oscillators
c Date: 17/02/2008 11:26:39 PM
p edge 19 42
e 1 9
e 1 17
e 1 2
e 1 6
e 2 6
e 2 3
e 3 6
e 3 10
e 3 11
e 4 5
e 4 7
e 4 18
e 4 12
e 4 9
e 4 16
e 5 6
e 5 9
e 5 10
e 5 8
e 5 7
e 6 9
e 6 10
e 7 13
e 7 16
e 7 19
e 7 8
e 8 13
e 8 14
e 8 10
e 8 15
e 9 18
e 9 17
e 10 14
e 10 11
e 11 14
e 12 18
e 12 16
e 13 15
e 13 19
e 14 15
e 16 19
e 17 18
